
Gurobi 6.0.4 (win64) logging started 06/18/15 16:00:58

Read LP format model from file C:\MT\repository\VRPTWMS\instances\mip\freight\N12-C_DV10-C_SV50_F26_4_No_1.lp
Reading time = 0.02 seconds
(null): 865 rows, 392 columns, 3639 nonzeros
Optimize a model with 865 rows, 392 columns and 3639 nonzeros
Model has 1728 quadratic constraints
Coefficient statistics:
  Matrix range    [1e+00, 1e+06]
  Objective range [2e+04, 1e+07]
  Bounds range    [1e+00, 1e+06]
  RHS range       [1e+00, 1e+06]
Presolve removed 222 rows and 91 columns
Presolve time: 0.09s
Presolved: 2694 rows, 1326 columns, 14581 nonzeros
Variable types: 1025 continuous, 301 integer (254 binary)
Found heuristic solution: objective 1.263398e+08

Root relaxation: objective 1.920552e+07, 169 iterations, 0.01 seconds

    Nodes    |    Current Node    |     Objective Bounds      |     Work
 Expl Unexpl |  Obj  Depth IntInf | Incumbent    BestBd   Gap | It/Node Time

     0     0 1.9206e+07    0   56 1.2634e+08 1.9206e+07  84.8%     -    0s
H    0     0                    9.575860e+07 1.9206e+07  79.9%     -    0s
H    0     0                    6.472060e+07 1.9206e+07  70.3%     -    0s
     0     0 2.5365e+07    0   50 6.4721e+07 2.5365e+07  60.8%     -    0s
H    0     0                    6.467740e+07 2.5365e+07  60.8%     -    0s
     0     0 3.3056e+07    0   44 6.4677e+07 3.3056e+07  48.9%     -    0s
     0     0 3.3111e+07    0   69 6.4677e+07 3.3111e+07  48.8%     -    0s
     0     0 3.3153e+07    0   59 6.4677e+07 3.3153e+07  48.7%     -    0s
H    0     0                    6.398910e+07 3.3153e+07  48.2%     -    0s
     0     0 3.3164e+07    0   61 6.3989e+07 3.3164e+07  48.2%     -    0s
     0     0 3.3174e+07    0   60 6.3989e+07 3.3174e+07  48.2%     -    0s
     0     0 3.3174e+07    0   60 6.3989e+07 3.3174e+07  48.2%     -    0s
     0     0 3.3174e+07    0   59 6.3989e+07 3.3174e+07  48.2%     -    0s
     0     0 3.3174e+07    0   58 6.3989e+07 3.3174e+07  48.2%     -    0s
     0     0 3.3174e+07    0   58 6.3989e+07 3.3174e+07  48.2%     -    0s
     0     0 3.3174e+07    0   59 6.3989e+07 3.3174e+07  48.2%     -    0s
     0     0 3.3174e+07    0   57 6.3989e+07 3.3174e+07  48.2%     -    0s
     0     2 3.3174e+07    0   57 6.3989e+07 3.3174e+07  48.2%     -    0s
*  303    98              11    6.384830e+07 3.4090e+07  46.6%  11.9    0s
H  546   157                    6.367300e+07 3.8083e+07  40.2%  11.4    0s

Cutting planes:
  Learned: 1
  Gomory: 4
  Cover: 116
  Implied bound: 38
  Clique: 21
  MIR: 32
  GUB cover: 9

Explored 3472 nodes (29866 simplex iterations) in 2.22 seconds
Thread count was 2 (of 4 available processors)

Optimal solution found (tolerance 1.00e-04)
Best objective 6.367300000000e+07, best bound 6.367300000000e+07, gap 0.0%
k_c1	40000.0
k_c10	94167.0
k_c11	60000.0
k_c12	100000.0
k_c2	100000.0
k_c3	89999.0
k_c4	50000.0
k_c5	100000.0
k_c6	70000.0
k_c7	100000.0
k_c8	64166.0
k_c9	100000.0
k_dN	-0.0
o_1	-0.0
o_10	-0.0
o_11	-0.0
o_12	-0.0
o_2	0.0
o_3	-0.0
o_4	0.0
o_5	-0.0
o_6	0.0
o_7	-0.0
o_8	-0.0
o_9	0.0
p_1	-0.0
p_10	-0.0
p_11	-0.0
p_12	-0.0
p_2	0.0
p_3	0.0
p_4	-0.0
p_5	-0.0
p_6	-0.0
p_7	0.0
p_8	-0.0
p_9	0.0
phi_c1	14671.0
phi_c10	238552.0
phi_c11	220018.0
phi_c12	9648.0
phi_c2	236632.0
phi_c3	229967.0
phi_c4	233976.0
phi_c5	246272.0
phi_c6	15788.0
phi_c7	240693.0
phi_c8	229159.0
phi_c9	241067.0
phi_d0	260000.0
phi_dN	-0.0
tauD_c1	850000.0
tauD_c10	80150.0
tauD_c11	792625.0
tauD_c12	708976.0
tauD_c2	100000.0
tauD_c3	650000.0
tauD_c4	400000.0
tauD_c5	154474.0
tauD_c6	200000.0
tauD_c7	450000.0
tauD_c8	650000.0
tauD_c9	70750.0
tauD_d0	-0.0
tauD_dN	1000000.0
tauS_c1	865175.0
tauS_c10	839850.0
tauS_c11	822625.0
tauS_c12	883950.0
tauS_c2	832675.0
tauS_c3	827475.0
tauS_c4	874050.0
tauS_c5	868700.0
tauS_c6	861000.0
tauS_c7	847850.0
tauS_c8	874925.0
tauS_c9	849250.0
tauS_d0	-0.0
tauS_dN	1000000.0
x_c10_c8	1.0
x_c11_dN	1.0
x_c12_dN	1.0
x_c1_dN	1.0
x_c2_c1	1.0
x_c3_c11	1.0
x_c4_dN	1.0
x_c5_c4	1.0
x_c6_dN	1.0
x_c7_c3	1.0
x_c8_dN	1.0
x_c9_c6	1.0
x_d0_c10	1.0
x_d0_c12	1.0
x_d0_c2	1.0
x_d0_c5	1.0
x_d0_c7	1.0
x_d0_c9	1.0
